c description: Random 3-CNF over 16 variables and 48 clauses
p cnf 16 48
-2 -5 -8 0
-7 -14 -15 0
-3 -6 8 0
7 10 -16 0
-2 -3 -14 0
1 -5 14 0
-9 -12 -14 0
3 -14 16 0
-4 -7 14 0
-2 -8 11 0
5 -9 14 0
5 6 11 0
8 9 13 0
2 -11 -12 0
-2 -4 -10 0
11 -13 -16 0
-11 -14 16 0
2 3 -16 0
-6 8 12 0
-3 4 -13 0
-11 12 14 0
2 9 -15 0
12 13 -14 0
-10 11 16 0
-4 9 -10 0
-3 9 15 0
2 -3 -15 0
2 -7 -11 0
-4 -8 11 0
-1 -4 6 0
7 -8 15 0
-8 13 -14 0
-4 8 13 0
9 12 -15 0
2 3 14 0
-1 2 -15 0
-3 10 -13 0
4 -13 -14 0
3 -5 6 0
2 -8 11 0
5 12 13 0
-9 10 15 0
-1 7 10 0
-3 8 -15 0
-3 10 -14 0
-4 11 -12 0
-7 -12 -14 0
-2 -15 -16 0